NAME        egout
ROWS
 N  COST    
 E  ...     
 E  001     
 E  002     
 E  004     
 E  006     
 E  007     
 E  009     
 E  010     
 E  011     
 E  013     
 E  014     
 E  015     
 E  017     
 E  019     
 E  020     
 E  021     
 E  023     
 E  025     
 E  026     
 E  028     
 E  029     
 E  030     
 E  031     
 E  033     
 E  034     
 E  035     
 E  036     
 E  038     
 E  039     
 E  040     
 E  041     
 E  042     
 E  003     
 E  005     
 E  008     
 E  012     
 E  016     
 E  018     
 E  024     
 E  022     
 E  027     
 E  032     
 E  037     
 L  U.001...
 L  U.001003
 L  U.002003
 L  U.002...
 L  U.003005
 L  U.004005
 L  U.004...
 L  U.005007
 L  U.006007
 L  U.007008
 L  U.008...
 L  U.008009
 L  U.010012
 L  U.011012
 L  U.012...
 L  U.012013
 L  U.013016
 L  U.014015
 L  U.015016
 L  U.016...
 L  U.016017
 L  U.017018
 L  U.009018
 L  U.018019
 L  U.019024
 L  U.024...
 L  U.023024
 L  U.022023
 L  U.020022
 L  U.021022
 L  U.022...
 L  U.024026
 L  U.025026
 L  U.025...
 L  U.026027
 L  U.027...
 L  U.027032
 L  U.030031
 L  U.031032
 L  U.029031
 L  U.028029
 L  U.028...
 L  U.032033
 L  U.033037
 L  U.036037
 L  U.034036
 L  U.035036
 L  U.037038
 L  U.038040
 L  U.039040
 L  U.040...
 L  U.041...
 L  U.040041
 L  U.041042
 L  U.042...
COLUMNS
    I.001...  U.001...  -117.04
    I.001003  U.001003  -117.04
    I.002003  U.002003  -117.04
    I.002...  U.002...  -117.04
    I.003005  U.003005  -117.04
    I.004005  U.004005  -117.04
    I.004...  U.004...  -117.04
    I.005007  U.005007  -117.04
    I.006007  U.006007  -117.04
    I.007008  U.007008  -117.04
    I.008...  U.008...  -117.04
    I.008009  U.008009  -117.04
    I.010012  U.010012  -117.04
    I.011012  U.011012  -117.04
    I.012...  U.012...  -117.04
    I.012013  U.012013  -117.04
    I.013016  U.013016  -117.04
    I.014015  U.014015  -117.04
    I.015016  U.015016  -117.04
    I.016...  U.016...  -117.04
    I.016017  U.016017  -117.04
    I.017018  U.017018  -117.04
    I.009018  U.009018  -117.04
    I.018019  U.018019  -117.04
    I.019024  U.019024  -117.04
    I.024...  U.024...  -117.04
    I.023024  U.023024  -117.04
    I.022023  U.022023  -117.04
    I.020022  U.020022  -117.04
    I.021022  U.021022  -117.04
    I.022...  U.022...  -117.04
    I.024026  U.024026  -117.04
    I.025026  U.025026  -117.04
    I.025...  U.025...  -117.04
    I.026027  U.026027  -117.04
    I.027...  U.027...  -117.04
    I.027032  U.027032  -117.04
    I.030031  U.030031  -117.04
    I.031032  U.031032  -117.04
    I.029031  U.029031  -117.04
    I.028029  U.028029  -117.04
    I.028...  U.028...  -117.04
    I.032033  U.032033  -117.04
    I.033037  U.033037  -117.04
    I.036037  U.036037  -117.04
    I.034036  U.034036  -117.04
    I.035036  U.035036  -117.04
    I.037038  U.037038  -117.04
    I.038040  U.038040  -117.04
    I.039040  U.039040  -117.04
    I.040...  U.040...  -117.04
    I.041...  U.041...  -117.04
    I.040041  U.040041  -117.04
    I.041042  U.041042  -117.04
    I.042...  U.042...  -117.04
    F....001  ...       1
    F....001  001       -1
    F....002  ...       1
    F....002  002       -1
    F....004  ...       1
    F....004  004       -1
    F....006  ...       1
    F....006  006       -1
    F....007  ...       1
    F....007  007       -1
    F....009  ...       1
    F....009  009       -1
    F....010  ...       1
    F....010  010       -1
    F....011  ...       1
    F....011  011       -1
    F....013  ...       1
    F....013  013       -1
    F....014  ...       1
    F....014  014       -1
    F....015  ...       1
    F....015  015       -1
    F....017  ...       1
    F....017  017       -1
    F....019  ...       1
    F....019  019       -1
    F....020  ...       1
    F....020  020       -1
    F....021  ...       1
    F....021  021       -1
    F....023  ...       1
    F....023  023       -1
    F....025  ...       1
    F....025  025       -1
    F....026  ...       1
    F....026  026       -1
    F....028  ...       1
    F....028  028       -1
    F....029  ...       1
    F....029  029       -1
    F....030  ...       1
    F....030  030       -1
    F....031  ...       1
    F....031  031       -1
    F....033  ...       1
    F....033  033       -1
    F....034  ...       1
    F....034  034       -1
    F....035  ...       1
    F....035  035       -1
    F....036  ...       1
    F....036  036       -1
    F....038  ...       1
    F....038  038       -1
    F....039  ...       1
    F....039  039       -1
    F....040  ...       1
    F....040  040       -1
    F....041  ...       1
    F....041  041       -1
    F....042  ...       1
    F....042  042       -1
    F.001...  ...       -1
    F.001...  001       1
    F.001...  U.001...  1
    F.001003  001       1
    F.001003  003       -1
    F.001003  U.001003  1
    F.002003  002       1
    F.002003  003       -1
    F.002003  U.002003  1
    F.002...  ...       -1
    F.002...  002       1
    F.002...  U.002...  1
    F.003005  003       1
    F.003005  005       -1
    F.003005  U.003005  1
    F.004005  004       1
    F.004005  005       -1
    F.004005  U.004005  1
    F.004...  ...       -1
    F.004...  004       1
    F.004...  U.004...  1
    F.005007  007       -1
    F.005007  005       1
    F.005007  U.005007  1
    F.006007  006       1
    F.006007  007       -1
    F.006007  U.006007  1
    F.007008  007       1
    F.007008  008       -1
    F.007008  U.007008  1
    F.008...  ...       -1
    F.008...  008       1
    F.008...  U.008...  1
    F.008009  009       -1
    F.008009  008       1
    F.008009  U.008009  1
    F.010012  010       1
    F.010012  012       -1
    F.010012  U.010012  1
    F.011012  011       1
    F.011012  012       -1
    F.011012  U.011012  1
    F.012...  ...       -1
    F.012...  012       1
    F.012...  U.012...  1
    F.012013  013       -1
    F.012013  012       1
    F.012013  U.012013  1
    F.013016  013       1
    F.013016  016       -1
    F.013016  U.013016  1
    F.014015  014       1
    F.014015  015       -1
    F.014015  U.014015  1
    F.015016  015       1
    F.015016  016       -1
    F.015016  U.015016  1
    F.016...  ...       -1
    F.016...  016       1
    F.016...  U.016...  1
    F.016017  017       -1
    F.016017  016       1
    F.016017  U.016017  1
    F.017018  017       1
    F.017018  018       -1
    F.017018  U.017018  1
    F.009018  009       1
    F.009018  018       -1
    F.009018  U.009018  1
    F.018019  019       -1
    F.018019  018       1
    F.018019  U.018019  1
    F.019024  019       1
    F.019024  024       -1
    F.019024  U.019024  1
    F.024...  ...       -1
    F.024...  024       1
    F.024...  U.024...  1
    F.023024  023       1
    F.023024  024       -1
    F.023024  U.023024  1
    F.022023  023       -1
    F.022023  022       1
    F.022023  U.022023  1
    F.020022  020       1
    F.020022  022       -1
    F.020022  U.020022  1
    F.021022  021       1
    F.021022  022       -1
    F.021022  U.021022  1
    F.022...  ...       -1
    F.022...  022       1
    F.022...  U.022...  1
    F.024026  026       -1
    F.024026  024       1
    F.024026  U.024026  1
    F.025026  025       1
    F.025026  026       -1
    F.025026  U.025026  1
    F.025...  ...       -1
    F.025...  025       1
    F.025...  U.025...  1
    F.026027  026       1
    F.026027  027       -1
    F.026027  U.026027  1
    F.027...  ...       -1
    F.027...  027       1
    F.027...  U.027...  1
    F.027032  027       1
    F.027032  032       -1
    F.027032  U.027032  1
    F.030031  030       1
    F.030031  031       -1
    F.030031  U.030031  1
    F.031032  031       1
    F.031032  032       -1
    F.031032  U.031032  1
    F.029031  029       1
    F.029031  031       -1
    F.029031  U.029031  1
    F.028029  028       1
    F.028029  029       -1
    F.028029  U.028029  1
    F.028...  ...       -1
    F.028...  028       1
    F.028...  U.028...  1
    F.032033  033       -1
    F.032033  032       1
    F.032033  U.032033  1
    F.033037  033       1
    F.033037  037       -1
    F.033037  U.033037  1
    F.036037  036       1
    F.036037  037       -1
    F.036037  U.036037  1
    F.034036  034       1
    F.034036  036       -1
    F.034036  U.034036  1
    F.035036  035       1
    F.035036  036       -1
    F.035036  U.035036  1
    F.037038  038       -1
    F.037038  037       1
    F.037038  U.037038  1
    F.038040  038       1
    F.038040  040       -1
    F.038040  U.038040  1
    F.039040  039       1
    F.039040  040       -1
    F.039040  U.039040  1
    F.040...  ...       -1
    F.040...  040       1
    F.040...  U.040...  1
    F.041...  ...       -1
    F.041...  041       1
    F.041...  U.041...  1
    F.040041  040       1
    F.040041  041       -1
    F.040041  U.040041  1
    F.041042  041       1
    F.041042  042       -1
    F.041042  U.041042  1
    F.042...  ...       -1
    F.042...  042       1
    F.042...  U.042...  1
RHS
BOUNDS
 UP BOUND     I.001...  1
 UP BOUND     I.001003  1
 UP BOUND     I.002003  1
 UP BOUND     I.002...  1
 UP BOUND     I.003005  1
 UP BOUND     I.004005  1
 UP BOUND     I.004...  1
 UP BOUND     I.005007  1
 UP BOUND     I.006007  1
 UP BOUND     I.007008  1
 UP BOUND     I.008...  1
 UP BOUND     I.008009  1
 UP BOUND     I.010012  1
 UP BOUND     I.011012  1
 UP BOUND     I.012...  1
 UP BOUND     I.012013  1
 UP BOUND     I.013016  1
 UP BOUND     I.014015  1
 UP BOUND     I.015016  1
 UP BOUND     I.016...  1
 UP BOUND     I.016017  1
 UP BOUND     I.017018  1
 UP BOUND     I.009018  1
 UP BOUND     I.018019  1
 UP BOUND     I.019024  1
 UP BOUND     I.024...  1
 UP BOUND     I.023024  1
 UP BOUND     I.022023  1
 UP BOUND     I.020022  1
 UP BOUND     I.021022  1
 UP BOUND     I.022...  1
 UP BOUND     I.024026  1
 UP BOUND     I.025026  1
 UP BOUND     I.025...  1
 UP BOUND     I.026027  1
 UP BOUND     I.027...  1
 UP BOUND     I.027032  1
 UP BOUND     I.030031  1
 UP BOUND     I.031032  1
 UP BOUND     I.029031  1
 UP BOUND     I.028029  1
 UP BOUND     I.028...  1
 UP BOUND     I.032033  1
 UP BOUND     I.033037  1
 UP BOUND     I.036037  1
 UP BOUND     I.034036  1
 UP BOUND     I.035036  1
 UP BOUND     I.037038  1
 UP BOUND     I.038040  1
 UP BOUND     I.039040  1
 UP BOUND     I.040...  1
 UP BOUND     I.041...  1
 UP BOUND     I.040041  1
 UP BOUND     I.041042  1
 UP BOUND     I.042...  1
 FX BOUND     F....001  2.45
 FX BOUND     F....002  0.61
 FX BOUND     F....004  7.91
 FX BOUND     F....006  4.54
 FX BOUND     F....007  1.14
 FX BOUND     F....009  0.28
 FX BOUND     F....010  1.13
 FX BOUND     F....011  21.46
 FX BOUND     F....013  4.64
 FX BOUND     F....014  0.31
 FX BOUND     F....015  1.24
 FX BOUND     F....017  0.07
 FX BOUND     F....019  2.41
 FX BOUND     F....020  0.39
 FX BOUND     F....021  7.41
 FX BOUND     F....023  0.07
 FX BOUND     F....025  19.22
 FX BOUND     F....026  10.49
 FX BOUND     F....028  0.88
 FX BOUND     F....029  5.7
 FX BOUND     F....030  0.28
 FX BOUND     F....031  0.28
 FX BOUND     F....033  0.19
 FX BOUND     F....034  0.19
 FX BOUND     F....035  0.28
 FX BOUND     F....036  0.57
 FX BOUND     F....038  5.3
 FX BOUND     F....039  5.32
 FX BOUND     F....040  0.76
 FX BOUND     F....041  5.08
 FX BOUND     F....042  6.44
ENDATA
